memory 1GB

molecule mol {
    0 1
    O
    H 1 0.9572
    H 1 0.9572 2 104.52
}

energy("HF/6-31G*")
