%chk=hess.chk
%nproc=1
%mem=1GB
# MP2/6-31G* Geom=(AllCheck,ModRedundant) Freq NoSymm IOp(7/33=1) SCF=Tight Guess=Read

B * * K
A * * * K
L * * * K
D * * * * K
B 2 1 A 
B 3 1 A 
B 12 1 A 
B 4 3 A 
B 5 3 A 
B 6 3 A 
B 7 6 A 
B 8 6 A 
B 9 6 A 
B 10 9 A 
B 11 9 A 
B 12 9 A 
B 13 12 A 
B 14 12 A 
A 4 3 1 A 
A 5 3 1 A 
A 6 3 1 A 
A 9 12 1 A 
A 13 12 1 A 
A 14 12 1 A 
A 3 1 2 A 
A 12 1 2 A 
A 12 1 3 A 
A 7 6 3 A 
A 8 6 3 A 
A 9 6 3 A 
A 5 3 4 A 
A 6 3 4 A 
A 6 3 5 A 
A 10 9 6 A 
A 11 9 6 A 
A 12 9 6 A 
A 8 6 7 A 
A 9 6 7 A 
A 9 6 8 A 
A 13 12 9 A 
A 14 12 9 A 
A 11 9 10 A 
A 12 9 10 A 
A 12 9 11 A 
A 14 12 13 A 
D 4 3 1 2 A 
D 5 3 1 2 A 
D 6 3 1 2 A 
D 4 3 1 12 A 
D 5 3 1 12 A 
D 6 3 1 12 A 
D 9 12 1 2 A 
D 13 12 1 2 A 
D 14 12 1 2 A 
D 9 12 1 3 A 
D 13 12 1 3 A 
D 14 12 1 3 A 
D 7 6 3 1 A 
D 8 6 3 1 A 
D 9 6 3 1 A 
D 7 6 3 4 A 
D 8 6 3 4 A 
D 9 6 3 4 A 
D 7 6 3 5 A 
D 8 6 3 5 A 
D 9 6 3 5 A 
D 10 9 6 3 A 
D 11 9 6 3 A 
D 12 9 6 3 A 
D 10 9 6 7 A 
D 11 9 6 7 A 
D 12 9 6 7 A 
D 10 9 6 8 A 
D 11 9 6 8 A 
D 12 9 6 8 A 
D 1 12 9 6 A 
D 13 12 9 6 A 
D 14 12 9 6 A 
D 1 12 9 10 A 
D 13 12 9 10 A 
D 14 12 9 10 A 
D 1 12 9 11 A 
D 13 12 9 11 A 
D 14 12 9 11 A 

